
Log started (V12.10.0.0) Tue Apr 20 03:54:56 2021


Problem 'asset.lp' read.
Read time = 0.01 sec. (0.73 ticks)
New value for default parallel thread count: 1
New value for time limit in seconds: 150
Version identifier: 12.10.0.0 | 2019-11-26 | 843d4de
CPXPARAM_Threads                                 1
CPXPARAM_TimeLimit                               150
Found incumbent of value 0.000000 after 0.00 sec. (0.18 ticks)
Tried aggregator 3 times.
MIP Presolve eliminated 3169 rows and 188 columns.
MIP Presolve modified 4538 coefficients.
Aggregator did 2050 substitutions.
Reduced MIP has 2146 rows, 2703 columns, and 12484 nonzeros.
Reduced MIP has 2430 binaries, 210 generals, 0 SOSs, and 0 indicators.
Presolve time = 0.02 sec. (26.24 ticks)
Probing fixed 120 vars, tightened 5 bounds.
Probing time = 0.02 sec. (14.32 ticks)
Cover probing fixed 0 vars, tightened 22 bounds.
Tried aggregator 1 time.
Detecting symmetries...
MIP Presolve eliminated 176 rows and 134 columns.
MIP Presolve modified 210 coefficients.
Reduced MIP has 1970 rows, 2569 columns, and 11449 nonzeros.
Reduced MIP has 2301 binaries, 205 generals, 0 SOSs, and 0 indicators.
Presolve time = 0.01 sec. (10.54 ticks)
Probing time = 0.00 sec. (3.05 ticks)
Clique table members: 7435.
MIP emphasis: balance optimality and feasibility.
MIP search method: dynamic search.
Parallel mode: none, using 1 thread.
Root relaxation solution time = 0.04 sec. (61.26 ticks)

        Nodes                                         Cuts/
   Node  Left     Objective  IInf  Best Integer    Best Bound    ItCnt     Gap

*     0+    0                            0.0000      940.0000              --- 
      0     0      911.8386   364        0.0000      911.8386     1015     --- 
      0     0      891.8750   364        0.0000     Cuts: 592     2113     --- 
      0     0      887.5000   364        0.0000     Cuts: 592     2963     --- 
      0     0      887.5000   364        0.0000     Cuts: 592     4047     --- 
      0     0      887.2500   364        0.0000     Cuts: 124     4743     --- 
      0     0      887.2500   364        0.0000     Cuts: 592     5401     --- 
Detecting symmetries...
*     0+    0                          400.0000      887.2500           121.81%
*     0+    0                          405.0000      887.2500           119.07%
*     0+    0                          430.0000      887.2500           106.34%
      0     0        cutoff            430.0000      887.2500     5401  106.34%
Detecting symmetries...
      0     2      887.2500   326      430.0000      887.0000     5401  106.28%
Elapsed time = 2.61 sec. (3287.11 ticks, tree = 0.01 MB, solutions = 3)
      2     4      880.0000   359      430.0000      885.0000     8057  105.81%
      6     8      885.0000   350      430.0000      885.0000    10302  105.81%
     13    15      884.8027   326      430.0000      885.0000    11674  105.81%
     20    22      885.0000   331      430.0000      885.0000    12529  105.81%
     30    32      885.0000   298      430.0000      885.0000    15221  105.81%
     40    42      882.6947   294      430.0000      885.0000    17309  105.81%
     52    54      875.9582   277      430.0000      885.0000    20722  105.81%
     63    65      857.0343   246      430.0000      885.0000    22702  105.81%
     80    80      802.2127   229      430.0000      885.0000    26244  105.81%
*   160+  148                          485.0000      885.0000            82.47%
    189   166      884.1187   340      485.0000      885.0000    36276   82.47%
Elapsed time = 4.95 sec. (6898.77 ticks, tree = 1.44 MB, solutions = 4)
    238   215      851.0302   251      485.0000      885.0000    41594   82.47%
    360   307      882.6465   293      485.0000      885.0000    49840   82.47%
    406   349      869.3990   356      485.0000      885.0000    59004   82.47%

Performing restart 1

Repeating presolve.
Tried aggregator 1 time.
MIP Presolve eliminated 1 rows and 1 columns.
MIP Presolve modified 3445 coefficients.
Reduced MIP has 1969 rows, 2568 columns, and 9540 nonzeros.
Reduced MIP has 2300 binaries, 205 generals, 0 SOSs, and 0 indicators.
Presolve time = 0.01 sec. (8.32 ticks)
Tried aggregator 1 time.
Reduced MIP has 1969 rows, 2568 columns, and 9540 nonzeros.
Reduced MIP has 2300 binaries, 205 generals, 0 SOSs, and 0 indicators.
Presolve time = 0.01 sec. (6.78 ticks)
Represolve time = 0.06 sec. (42.37 ticks)
    498     0      856.1842   495      485.0000     Cuts: 592    72621   76.53%
    498     0      842.5450   495      485.0000     Cuts: 414    74512   73.72%
    498     0      834.1273   495      485.0000     Cuts: 368    75986   71.99%
    498     0      827.0330   495      485.0000     Cuts: 306    77502   70.52%
    498     0      823.6406   495      485.0000     Cuts: 296    79152   69.82%
    498     0      819.1626   495      485.0000     Cuts: 257    81231   68.90%
    498     0      816.2408   495      485.0000     Cuts: 299    82378   68.30%
    498     0      814.0835   495      485.0000     Cuts: 217    83543   67.85%
    498     0      812.3031   495      485.0000     Cuts: 284    84828   67.49%
    498     0      810.6244   495      485.0000     Cuts: 231    85997   67.14%
    498     0      809.7569   495      485.0000     Cuts: 189    87018   66.96%
    498     0      809.2351   495      485.0000     Cuts: 144    87703   66.85%
    498     0      808.8432   495      485.0000      Cuts: 96    88352   66.77%
    498     0      808.3641   495      485.0000      Cuts: 98    89242   66.67%
    498     0      807.7027   495      485.0000     Cuts: 116    89896   66.54%
    498     0      807.2921   495      485.0000     Cuts: 148    90601   66.45%
    498     0      806.8323   495      485.0000     Cuts: 140    91425   66.36%
    498     0      806.0319   495      485.0000      Cuts: 99    92138   66.19%
    498     0      805.7071   495      485.0000     Cuts: 141    92696   66.13%
    498     0      805.1387   495      485.0000     Cuts: 142    93567   66.01%
    498     0      804.8441   495      485.0000     Cuts: 151    94425   65.95%
    498     0      804.7459   495      485.0000     Cuts: 157    94685   65.93%
    498     0      804.6096   495      485.0000     Cuts: 145    95058   65.90%
    498     0      804.4370   495      485.0000     Cuts: 114    95474   65.86%
    498     0      804.0139   495      485.0000     Cuts: 139    96771   65.78%
    498     0      803.8548   495      485.0000     Cuts: 187    97233   65.74%
    498     0      803.5120   495      485.0000     Cuts: 146    97732   65.67%
    498     0      803.1297   495      485.0000     Cuts: 152    98341   65.59%
    498     0      802.9116   495      485.0000     Cuts: 163    99052   65.55%
    498     0      802.7368   495      485.0000     Cuts: 154    99490   65.51%
    498     0      802.6270   495      485.0000     Cuts: 116    99806   65.49%
    498     0      802.2877   495      485.0000     Cuts: 116   100706   65.42%
    498     0      802.0568   495      485.0000     Cuts: 206   101109   65.37%
    498     0      801.8967   495      485.0000     Cuts: 163   101540   65.34%
    498     0      801.6763   495      485.0000     Cuts: 112   101888   65.29%
    498     0      801.6411   495      485.0000     Cuts: 123   102566   65.29%
    498     0      801.5959   495      485.0000     Cuts: 127   102966   65.28%
    498     2      801.5959   558      485.0000      801.5932   102966   65.28%
    500     4      801.4642   529      485.0000      801.4642   103826   65.25%
    502     6      799.7936   514      485.0000      801.4642   105675   65.25%
    504     8      799.6865   516      485.0000      801.4642   108127   65.25%
    506    10      796.8601   504      485.0000      801.4642   113980   65.25%
    508    12      785.8312   476      485.0000      801.4642   117115   65.25%
    512    16      795.7531   510      485.0000      801.4642   119162   65.25%
Elapsed time = 38.46 sec. (50782.87 ticks, tree = 0.08 MB, solutions = 4)
    515    19      788.1290   496      485.0000      801.4642   122440   65.25%
    518    22      778.9781   475      485.0000      801.4642   126881   65.25%
    522    26      787.5392   469      485.0000      801.4642   130660   65.25%
    525    29      784.1342   461      485.0000      801.4642   135331   65.25%
    528    32      770.9886   418      485.0000      801.4642   140328   65.25%
    532    36      783.3386   453      485.0000      801.4642   144037   65.25%
    535    39      746.9681   398      485.0000      801.4642   148815   65.25%
    539    43      773.4340   439      485.0000      801.4642   153447   65.25%
    546    50      765.3068   429      485.0000      801.4642   157539   65.25%
    550    54      772.1600   427      485.0000      801.4642   162836   65.25%
Elapsed time = 46.47 sec. (62733.55 ticks, tree = 0.53 MB, solutions = 4)
    554    58      772.5942   431      485.0000      801.4642   166079   65.25%
    558    62      774.1852   440      485.0000      801.4642   170865   65.25%
    564    68      773.4139   433      485.0000      801.4642   175354   65.25%
    569    73      769.5587   430      485.0000      801.4642   180472   65.25%
    576    80      745.1515   379      485.0000      801.4642   186923   65.25%
    578    82      763.2114   413      485.0000      801.4642   191078   65.25%
    583    87      755.6598   371      485.0000      801.4642   197594   65.25%
    588    92      758.2445   388      485.0000      801.4642   202461   65.25%
    593    97      739.1933   375      485.0000      801.4642   209546   65.25%
    598   102      754.6653   375      485.0000      801.4642   212867   65.25%
Elapsed time = 54.77 sec. (75675.27 ticks, tree = 0.82 MB, solutions = 4)
    603   107      753.9703   380      485.0000      801.4642   218444   65.25%
    609   113      719.8063   336      485.0000      801.4642   225782   65.25%
    618   122      752.4935   380      485.0000      801.4642   230575   65.25%
    624   128      742.5728   361      485.0000      801.4642   238005   65.25%
    635   139      743.2692   375      485.0000      801.4642   243962   65.25%
    648   152      736.6715   355      485.0000      801.4642   250724   65.25%
    660   163      723.4266   296      485.0000      801.4642   257803   65.25%
    678   181      719.8294   300      485.0000      801.4642   263217   65.25%
    693   196      708.0747   277      485.0000      801.4642   270972   65.25%
    712   215      696.6826   291      485.0000      801.4642   277471   65.25%
Elapsed time = 61.72 sec. (86814.26 ticks, tree = 1.04 MB, solutions = 4)
    734   235      689.7015   277      485.0000      801.4642   283150   65.25%
    764   261      697.4250   275      485.0000      801.4642   288021   65.25%
    796   287      646.1028   224      485.0000      801.4642   295472   65.25%
    843   324      622.0187   191      485.0000      801.4642   301180   65.25%
    857   332      798.0141   514      485.0000      801.4642   305378   65.25%
    858   333      798.0056   499      485.0000      801.4642   305455   65.25%
    862   337      769.1455   468      485.0000      801.4642   310457   65.25%
    867   342      792.4983   472      485.0000      801.4642   314867   65.25%
    875   350      761.3532   431      485.0000      801.4642   321304   65.25%
    878   353      783.8700   461      485.0000      801.4642   327515   65.25%
Elapsed time = 69.38 sec. (98693.36 ticks, tree = 1.25 MB, solutions = 4)
    883   358      764.3396   419      485.0000      801.4642   335664   65.25%
    890   365      751.7249   410      485.0000      801.4642   341489   65.25%
    896   371      745.5878   384      485.0000      801.4642   346928   65.25%
    898   373      734.9487   367      485.0000      801.4642   349917   65.25%
    910   383      726.8271   362      485.0000      801.4642   356096   65.25%
    918   391      730.2576   353      485.0000      801.4642   362160   65.25%
    928   401      717.5769   329      485.0000      801.4642   367751   65.25%
    940   413      711.5482   329      485.0000      801.4642   375021   65.25%
    949   422      704.2733   288      485.0000      801.4642   381047   65.25%
    969   442      694.9010   280      485.0000      801.4642   387577   65.25%
Elapsed time = 76.22 sec. (109512.13 ticks, tree = 1.38 MB, solutions = 4)
    996   467      658.2370   239      485.0000      801.4642   395034   65.25%
   1050   517      651.0839   229      485.0000      801.4642   401954   65.25%
   1094   549      801.3407   544      485.0000      801.3402   407066   65.22%
   1096   551      771.8024   480      485.0000      801.3400   411426   65.22%
   1104   559      801.1139   541      485.0000      801.3272   414292   65.22%
   1109   564      782.0284   482      485.0000      801.3272   420210   65.22%
   1117   572      769.4666   423      485.0000      801.3272   425726   65.22%
   1129   584      757.8896   431      485.0000      801.3272   432437   65.22%
   1143   598      744.1782   366      485.0000      801.3272   439124   65.22%
   1170   625      727.2840   335      485.0000      801.3272   446709   65.22%
Elapsed time = 83.11 sec. (120110.81 ticks, tree = 1.67 MB, solutions = 4)
   1187   636      772.2456   480      485.0000      801.3255   452022   65.22%
   1190   639      732.0064   363      485.0000      801.3255   460241   65.22%
   1200   649      718.8797   326      485.0000      801.3255   468185   65.22%
   1209   658      682.8870   260      485.0000      801.3255   477020   65.22%
   1232   677      622.8940   206      485.0000      801.3255   484786   65.22%
   1295   732      783.8098   510      485.0000      801.3180   495001   65.22%
   1298   735      780.4771   490      485.0000      801.3180   497006   65.22%
   1308   745      765.0371   465      485.0000      801.3180   503835   65.22%
   1315   752      757.1585   441      485.0000      801.3180   509104   65.22%
   1324   761      746.3503   412      485.0000      801.3180   515369   65.22%
Elapsed time = 91.13 sec. (132374.31 ticks, tree = 1.87 MB, solutions = 4)
   1338   775      734.9067   377      485.0000      801.3180   520977   65.22%
   1363   800      713.0001   343      485.0000      801.3180   526733   65.22%
   1408   838      785.7796   503      485.0000      801.2694   535496   65.21%
   1412   842      767.3742   476      485.0000      801.2694   539971   65.21%
   1416   846      743.5898   445      485.0000      801.2694   544749   65.21%
   1422   852      734.5051   413      485.0000      801.2694   549982   65.21%
   1438   868      716.4507   356      485.0000      801.2694   555665   65.21%
   1461   891      701.3614   337      485.0000      801.2694   562296   65.21%
   1513   940      641.6390   230      485.0000      801.2694   568066   65.21%
   1548   967      759.5973   440      485.0000      801.1010   585007   65.18%
Elapsed time = 100.98 sec. (147265.39 ticks, tree = 2.17 MB, solutions = 4)
   1599  1018      664.3301   289      485.0000      801.1010   606496   65.18%
   1641  1056      741.2479   418      485.0000      801.0222   627414   65.16%
   1715  1122      750.3991   459      485.0000      799.9679   653757   64.94%
   1735  1142      716.0296   343      485.0000      799.9679   681000   64.94%
   1805  1200      777.8581   530      485.0000      799.7854   711989   64.90%
   1832  1227      708.5913   348      485.0000      799.7854   739988   64.90%
   1931  1316      769.5679   448      485.0000      798.5424   767222   64.65%
   1980  1365      630.7759   255      485.0000      798.5424   790091   64.65%
   2031  1410      749.2972   397      485.0000      798.3466   806886   64.61%
   2098  1471      649.4951   256      485.0000      798.3466   830533   64.61%
Elapsed time = 127.00 sec. (187149.64 ticks, tree = 2.93 MB, solutions = 4)
   2178  1546      781.2920   456      485.0000      798.0141   843757   64.54%
   2209  1577      722.4076   336      485.0000      798.0141   865500   64.54%
   2324  1684      748.5498   399      485.0000      797.7628   889398   64.49%
   2363  1721      629.2865   267      485.0000      797.7628   914443   64.49%
Starting limited solution polishing.
   2442  1786      759.1659   461      485.0000      797.5884   935741   64.45%
   2490  1834      554.0783   183      485.0000      797.5884   964706   64.45%
   2544  1884      714.4582   383      485.0000      796.0699   979265   64.14%
   2625  1959      787.2992   524      485.0000      795.8815  1012983   64.10%

GUB cover cuts applied:  143
Clique cuts applied:  151
Cover cuts applied:  15
Implied bound cuts applied:  69
Flow cuts applied:  13
Mixed integer rounding cuts applied:  185
Zero-half cuts applied:  147
Lift and project cuts applied:  28
Gomory fractional cuts applied:  3

Root node processing (before b&c):
  Real time             =    2.60 sec. (3277.46 ticks)
Sequential b&c:
  Real time             =  147.40 sec. (218810.58 ticks)
                          ------------
Total (root+branch&cut) =  150.00 sec. (222088.04 ticks)

Solution pool: 5 solutions saved.

MIP - Time limit exceeded, integer feasible:  Objective =  4.8500000000e+02
Current MIP best bound =  7.9588151543e+02 (gap = 310.882, 64.10%)
Solution time =  150.00 sec.  Iterations = 1021435  Nodes = 2634 (1967)
Deterministic time = 222088.05 ticks  (1480.58 ticks/sec)


Incumbent solution
Variable Name           Solution Value
F                           485.000000
y58                           1.000000
y88                           1.000000
y264                          1.000000
y206                          1.000000
y215                          1.000000
y3                            1.000000
y66                           1.000000
y251                          1.000000
y187                          1.000000
y226                          1.000000
y73                           1.000000
y23                           1.000000
y20                           1.000000
y77                           1.000000
y186                          1.000000
y129                          1.000000
y145                          1.000000
y45                           1.000000
y230                          1.000000
y12                           1.000000
y150                          1.000000
y75                           1.000000
y293                          1.000000
y175                          1.000000
y19                           1.000000
y25                           1.000000
y229                          1.000000
y250                          1.000000
y209                          1.000000
y287                          1.000000
y1                            1.000000
x261x187x1                    1.000000
x57x73x1                      1.000000
x65x251x1                     1.000000
x104x88x1                     1.000000
x104x206x1                    1.000000
x284x226x1                    1.000000
x176x77x1                     1.000000
x22x66x1                      2.000000
x109x58x2                     1.000000
x109x187x2                    1.000000
x237x20x2                     1.000000
x201x88x2                     1.000000
x159x3x2                      1.000000
x159x186x2                    1.000000
x4x215x2                      2.000000
x284x186x2                    1.000000
x84x251x3                     1.000000
x84x20x3                      1.000000
x261x58x3                     1.000000
x57x73x3                      1.000000
x65x264x3                     1.000000
x257x3x3                      1.000000
x201x206x3                    1.000000
x165x264x3                    1.000000
x165x226x3                    1.000000
x58x293x2                     1.000000
x58x129x3                     1.000000
x88x45x1                      1.000000
x88x45x2                      1.000000
x264x19x3                     2.000000
x206x12x1                     1.000000
x206x150x3                    1.000000
x215x75x2                     1.000000
x215x175x2                    1.000000
x3x25x2                       1.000000
x3x150x3                      1.000000
x66x230x1                     2.000000
x251x75x1                     1.000000
x251x12x3                     1.000000
x187x293x1                    1.000000
x187x0x2                      1.000000
x226x145x1                    1.000000
x226x145x3                    1.000000
x73x23x1                      1.000000
x73x23x3                      1.000000
x23x229x1                     1.000000
x23x229x3                     1.000000
x20x25x2                      1.000000
x20x77x3                      1.000000
x77x250x1                     1.000000
x77x250x3                     1.000000
x186x129x2                    1.000000
x186x175x2                    1.000000
x129x287x2                    1.000000
x129x209x3                    1.000000
x145x0x1                      1.000000
x145x1x3                      1.000000
x45x1x1                       1.000000
x45x0x2                       1.000000
x230x0x1                      2.000000
x12x0x1                       1.000000
x12x0x3                       1.000000
x150x0x3                      2.000000
x75x0x1                       1.000000
x75x0x2                       1.000000
x293x209x1                    1.000000
x293x287x2                    1.000000
x175x0x2                      2.000000
x19x0x3                       2.000000
x25x0x2                       2.000000
x229x0x1                      1.000000
x229x0x3                      1.000000
x250x0x1                      1.000000
x250x0x3                      1.000000
x209x0x1                      1.000000
x209x0x3                      1.000000
x287x0x2                      2.000000
x1x0x1                        1.000000
x1x0x3                        1.000000
s84                           5.020000
s58                           6.105901
s264                          6.584822
z84z264z3                     1.000000
s254                          5.860000
s206                          6.602977
s289                          6.650182
s3                            6.690715
s251                          6.740796
z84z251z3                     1.000000
s226                          6.512836
s73                           6.169857
s181                          6.180000
s239                          6.396002
z84z239z3                     1.000000
s23                           7.290000
s20                           6.420000
z84z20z3                      1.000000
s238                          7.390000
s77                           7.517663
s70                           6.560000
z84z70z3                      1.000000
s94                           6.680000
z84z94z3                      1.000000
s306                          7.940000
s129                          7.946338
s145                          7.970000
s128                          7.980000
s294                          7.010000
z84z294z3                     1.000000
s185                          7.100000
z84z185z3                     1.000000
s15                           7.220000
s12                           8.250000
s33                           7.290000
s150                          8.277533
z84z150z3                     1.000000
s162                          7.360000
z84z162z3                     1.000000
s68                           8.430000
s62                           8.490000
s232                          7.500000
s266                          8.051536
z84z266z3                     1.000000
s19                           8.590000
z84z19z3                      1.000000
s205                          7.780000
s2                            8.900000
z84z2z3                       1.000000
s229                          8.930000
s64                           7.990000
s250                          9.030000
s133                          9.070000
s209                          9.470000
s1                            9.490000
s109                          5.070000
z109z58z2                     1.000000
s16                           6.610393
z109z16z2                     1.000000
s88                           6.619925
s215                          6.689005
z109z215z2                    1.000000
s187                          6.422696
z109z187z2                    1.000000
s186                          6.920000
z109z186z2                    1.000000
s164                          7.070000
s45                           8.130000
s295                          7.180000
s75                           8.219915
s141                          7.380000
s293                          8.020210
s175                          8.241856
z109z175z2                    1.000000
s25                           8.620000
z109z25z2                     1.000000
s30                           7.790000
z109z30z2                     1.000000
s80                           7.870000
s48                           8.990000
z109z48z2                     1.000000
s287                          9.470000
z109z287z2                    1.000000
s261                          5.020000
z261z58z3                     1.000000
s66                           6.619589
z261z187z1                    1.000000
z261z70z3                     1.000000
z261z94z3                     1.000000
z261z294z3                    1.000000
z261z185z3                    1.000000
s230                          8.143251
z261z230z1                    1.000000
z261z150z3                    1.000000
s7                            7.350000
z261z7z1                      1.000000
z261z162z3                    1.000000
s111                          8.510000
z261z111z1                    1.000000
z261z266z3                    1.000000
s282                          8.580000
z261z282z1                    1.000000
z261z19z3                     1.000000
s233                          7.700000
z261z233z1                    1.000000
s149                          7.760000
z261z149z1                    1.000000
s55                           7.860000
z261z55z1                     1.000000
s177                          7.860000
z261z177z1                    1.000000
z261z2z3                      1.000000
s269                          9.280000
z261z269z1                    1.000000
s57                           4.672430
z57z73z1                      1.000000
z57z73z3                      1.000000
z57z239z3                     1.000000
z57z70z3                      1.000000
z57z94z3                      1.000000
z57z294z3                     1.000000
z57z185z3                     1.000000
z57z230z1                     1.000000
z57z150z3                     1.000000
z57z7z1                       1.000000
z57z162z3                     1.000000
z57z111z1                     1.000000
z57z266z3                     1.000000
z57z282z1                     1.000000
z57z19z3                      1.000000
z57z233z1                     1.000000
z57z149z1                     1.000000
z57z55z1                      1.000000
z57z177z1                     1.000000
z57z2z3                       1.000000
z57z269z1                     1.000000
s237                          4.119210
z237z20z2                     1.000000
z237z186z2                    1.000000
z237z175z2                    1.000000
z237z25z2                     1.000000
z237z30z2                     1.000000
z237z48z2                     1.000000
z237z287z2                    1.000000
s65                           5.145050
z65z264z3                     1.000000
z65z251z1                     1.000000
z65z94z3                      1.000000
z65z294z3                     1.000000
z65z185z3                     1.000000
z65z230z1                     1.000000
z65z150z3                     1.000000
z65z7z1                       1.000000
z65z162z3                     1.000000
z65z111z1                     1.000000
z65z266z3                     1.000000
z65z282z1                     1.000000
z65z19z3                      1.000000
z65z233z1                     1.000000
z65z149z1                     1.000000
z65z55z1                      1.000000
z65z177z1                     1.000000
z65z2z3                       1.000000
z65z269z1                     1.000000
s104                          5.100690
z104z88z1                     1.000000
z104z206z1                    1.000000
z104z230z1                    1.000000
z104z7z1                      1.000000
z104z111z1                    1.000000
z104z282z1                    1.000000
z104z233z1                    1.000000
z104z149z1                    1.000000
z104z55z1                     1.000000
z104z177z1                    1.000000
z104z269z1                    1.000000
s257                          5.205040
z257z3z3                      1.000000
z257z294z3                    1.000000
z257z185z3                    1.000000
z257z150z3                    1.000000
z257z162z3                    1.000000
z257z266z3                    1.000000
z257z19z3                     1.000000
z257z2z3                      1.000000
s201                          5.206360
z201z88z2                     1.000000
z201z206z3                    1.000000
z201z186z2                    1.000000
z201z294z3                    1.000000
z201z185z3                    1.000000
z201z150z3                    1.000000
z201z162z3                    1.000000
z201z175z2                    1.000000
z201z266z3                    1.000000
z201z19z3                     1.000000
z201z25z2                     1.000000
z201z30z2                     1.000000
z201z2z3                      1.000000
z201z48z2                     1.000000
z201z287z2                    1.000000
s159                          5.203840
z159z16z2                     1.000000
z159z3z2                      1.000000
z159z186z2                    1.000000
z159z175z2                    1.000000
z159z25z2                     1.000000
z159z30z2                     1.000000
z159z48z2                     1.000000
z159z287z2                    1.000000
s4                            5.226050
z4z215z2                      1.000000
z4z186z2                      1.000000
z4z175z2                      1.000000
z4z25z2                       1.000000
z4z30z2                       1.000000
z4z48z2                       1.000000
z4z287z2                      1.000000
s165                          5.029550
z165z264z3                    1.000000
z165z226z3                    1.000000
z165z94z3                     1.000000
z165z294z3                    1.000000
z165z185z3                    1.000000
z165z150z3                    1.000000
z165z162z3                    1.000000
z165z266z3                    1.000000
z165z19z3                     1.000000
z165z2z3                      1.000000
s284                          4.982430
z284z226z1                    1.000000
z284z186z2                    1.000000
z284z230z1                    1.000000
z284z7z1                      1.000000
z284z175z2                    1.000000
z284z111z1                    1.000000
z284z282z1                    1.000000
z284z25z2                     1.000000
z284z233z1                    1.000000
z284z149z1                    1.000000
z284z30z2                     1.000000
z284z55z1                     1.000000
z284z177z1                    1.000000
z284z48z2                     1.000000
z284z269z1                    1.000000
z284z287z2                    1.000000
s176                          5.256650
z176z77z1                     1.000000
z176z111z1                    1.000000
z176z282z1                    1.000000
z176z233z1                    1.000000
z176z149z1                    1.000000
z176z55z1                     1.000000
z176z177z1                    1.000000
z176z269z1                    1.000000
s22                           5.390000
z22z66z1                      1.000000
z22z230z1                     1.000000
z22z7z1                       1.000000
z22z111z1                     1.000000
z22z282z1                     1.000000
z22z233z1                     1.000000
z22z149z1                     1.000000
z22z55z1                      1.000000
z22z177z1                     1.000000
z22z269z1                     1.000000
z58z129z3                     1.000000
z58z293z2                     1.000000
z58z25z2                      1.000000
z58z2z3                       1.000000
z58z48z2                      1.000000
z58z287z2                     1.000000
z16z48z2                      1.000000
z16z287z2                     1.000000
z88z45z1                      1.000000
z88z45z2                      1.000000
z88z269z1                     1.000000
z88z287z2                     1.000000
z264z266z3                    1.000000
z264z19z3                     1.000000
z254z287z2                    1.000000
z206z12z1                     1.000000
z206z150z3                    1.000000
z215z75z2                     1.000000
z215z175z2                    1.000000
z215z287z2                    1.000000
z3z150z3                      1.000000
z3z25z2                       1.000000
z3z287z2                      1.000000
z66z230z1                     1.000000
z66z269z1                     1.000000
z251z12z3                     1.000000
z251z75z1                     1.000000
z187z293z1                    1.000000
z187z287z2                    1.000000
z226z145z1                    1.000000
z226z145z3                    1.000000
z73z23z1                      1.000000
z73z23z3                      1.000000
z23z229z1                     1.000000
z23z229z3                     1.000000
z20z77z3                      1.000000
z20z25z2                      1.000000
z20z287z2                     1.000000
z238z287z2                    1.000000
z77z250z1                     1.000000
z77z250z3                     1.000000
z186z129z2                    1.000000
z186z175z2                    1.000000
z186z287z2                    1.000000
z129z209z3                    1.000000
z129z287z2                    1.000000
z145z1z3                      1.000000
z45z1z1                       1.000000
z293z209z1                    1.000000
z293z287z2                    1.000000
z30z48z2                      1.000000
All other variables in the range 1-4942 are 0.
